/*********************************************
 * OPL 12.6.0.0 Data
 * Author: Adrian Rodriguez Bazaga, Pau Rodriguez Esmerats
 * Creation Date: 06/12/2017 at 23:02:58
 *********************************************/

nNurses=164;
maxConsec=2;
maxPresence=7;
maxHours=5;
minHours=1;
hours=24;
demand= [25 26 33 35 26 33 35 28 23 14 2 7 3 8 5 6 4 4 3 1 26 51 27 35  ];
